
  12    4
  10   10   10   10

   0   0   0   0   0   3 2 3 7 
   1  10  10  10  10   2 6 4 
   7  10  10  10  10   1 5 
   3  10  10  10  10   3 11 10 8 
   3  10  10  10  10   3 10 9 8 
   9  10  10  10  10   3 10 9 8 
   9  10  10  10  10   3 11 9 8 
   1  10  10  10  10   1 12
   7  10  10  10  10   1 12
   4  10  10  10  10   1 12
   9  10  10  10  10   1 12
   0   0   0   0   0   0 
